Route #1: 26 14 61 50 37 49 62 
Route #2: 20 55 30 31 3 35 21 
Route #3: 8 9 25 60 28 46 6 
Route #4: 27 7 52 36 18 13 16 
Route #5: 12 34 22 41 15 33 56 
Route #6: 11 48 5 19 2 47 32 39 44 
Route #7: 57 43 10 42 4 17 
Route #8: 59 51 58 63 24 40 53 38 
Route #9: 45 29 23 54 
cost 1732.54
